
Welcome to IBM(R) ILOG(R) CPLEX(R) Interactive Optimizer 22.1.1.0
  with Simplex, Mixed Integer & Barrier Optimizers
5725-A06 5725-A29 5724-Y48 5724-Y49 5724-Y54 5724-Y55 5655-Y21
Copyright IBM Corp. 1988, 2022.  All Rights Reserved.

Type 'help' for a list of available commands.
Type 'help' followed by a command name for more
information on commands.

CPLEX> Selected objective sense:  MINIMIZE
Selected objective  name:  00000000
Selected RHS        name:  RHS1
Selected bound      name:  BOUND
Problem 'ee.mps' read.
Read time = 0.03 sec. (3.14 ticks)
CPLEX> New value for time limit in seconds: 7200
CPLEX> New value for parallel optimization mode: -1
CPLEX> New value for default parallel thread count: 40
CPLEX> New value for mixed integer optimality gap tolerance: 1e-13
CPLEX> Version identifier: 22.1.1.0 | 2022-11-28 | 9160aff4d
CPXPARAM_Threads                                 40
CPXPARAM_Parallel                                -1
CPXPARAM_TimeLimit                               7200
CPXPARAM_MIP_Tolerances_MIPGap                   1e-13
Found incumbent of value 0.000000 after 0.00 sec. (0.31 ticks)
Tried aggregator 2 times.
MIP Presolve eliminated 183 rows and 2745 columns.
MIP Presolve modified 5862 coefficients.
Aggregator did 713 substitutions.
Reduced MIP has 3624 rows, 7744 columns, and 28666 nonzeros.
Reduced MIP has 7744 binaries, 0 generals, 0 SOSs, and 0 indicators.
Presolve time = 0.07 sec. (68.81 ticks)
Probing time = 0.03 sec. (5.30 ticks)
Tried aggregator 1 time.
Detecting symmetries...
Reduced MIP has 3624 rows, 7744 columns, and 28666 nonzeros.
Reduced MIP has 7744 binaries, 0 generals, 0 SOSs, and 0 indicators.
Presolve time = 0.02 sec. (21.93 ticks)
Probing time = 0.02 sec. (5.09 ticks)
Clique table members: 18557.
MIP emphasis: balance optimality and feasibility.
MIP search method: dynamic search.
Parallel mode: opportunistic, using up to 40 threads.
Root relaxation solution time = 0.18 sec. (193.53 ticks)

        Nodes                                         Cuts/
   Node  Left     Objective  IInf  Best Integer    Best Bound    ItCnt     Gap

*     0+    0                            0.0000  -1.31000e+13              --- 
*     0+    0                      -3.29000e+12  -1.31000e+13           298.18%
*     0+    0                      -4.40000e+12  -1.31000e+13           197.73%
*     0+    0                      -5.50000e+12  -1.31000e+13           138.18%
      0     0  -1.30900e+13   118  -5.50000e+12  -1.30900e+13     2507  138.00%
*     0+    0                      -1.30900e+13  -1.30900e+13             0.00%
      0     0  -1.30900e+13   190  -1.30900e+13      Cuts: 68     2978    0.00%
*     0+    0                      -1.30900e+13  -1.30900e+13             0.00%
      0     0  -1.30900e+13   189  -1.30900e+13      Cuts: 90     3178    0.00%
*     0+    0                      -1.30900e+13  -1.30900e+13             0.00%
      0     2  -1.30900e+13   185  -1.30900e+13  -1.30900e+13     3178    0.00%
Elapsed time = 3.08 sec. (1346.69 ticks, tree = 0.02 MB, solutions = 10)
    448    88  -1.30900e+13   111  -1.30900e+13  -1.30900e+13    25624    0.00%
   1186    73        cutoff        -1.30900e+13  -1.30900e+13    22669    0.00%
   1756   233  -1.30900e+13   261  -1.30900e+13  -1.30900e+13    64883    0.00%
   2387   274        cutoff        -1.30900e+13  -1.30900e+13   100406    0.00%
   2935    77  -1.30900e+13    51  -1.30900e+13  -1.30900e+13   211568    0.00%
   3681    58  -1.30900e+13   107  -1.30900e+13  -1.30900e+13   362292    0.00%
   4627   170        cutoff        -1.30900e+13  -1.30900e+13   171943    0.00%
   5816    42        cutoff        -1.30900e+13  -1.30900e+13   239365    0.00%
   7061    16  -1.30900e+13   112  -1.30900e+13  -1.30900e+13   290781    0.00%
  10021    31  -1.30900e+13   125  -1.30900e+13  -1.30900e+13   369095    0.00%
Elapsed time = 7.82 sec. (4471.53 ticks, tree = 0.06 MB, solutions = 10)

GUB cover cuts applied:  6
Clique cuts applied:  11
Cover cuts applied:  514
Flow cuts applied:  1
Mixed integer rounding cuts applied:  5
Zero-half cuts applied:  4
Lift and project cuts applied:  3
Gomory fractional cuts applied:  32

Root node processing (before b&c):
  Real time             =    1.70 sec. (1326.64 ticks)
Parallel b&c, 40 threads:
  Real time             =    6.17 sec. (3158.98 ticks)
  Sync time (average)   =    2.57 sec.
  Wait time (average)   =    0.00 sec.
                          ------------
Total (root+branch&cut) =    7.87 sec. (4485.61 ticks)

Solution pool: 10 solutions saved.

MIP - Integer optimal solution:  Objective = -1.3089998691e+13
Solution time =    8.00 sec.  Iterations = 381108  Nodes = 10026
Deterministic time = 4485.65 ticks  (560.45 ticks/sec)

CPLEX> Solution 'p11' written to file 'ee.sol'.
CPLEX> 